HUN,8,6,383
0,6,2,17,1,22,5,15,3,1,4,29
0,18,1,8,2,10,5,5,4,22,3,6
1,28,2,24,0,23,3,21,5,11,4,30
0,27,1,10,2,5,5,7,4,22,3,14
1,14,0,23,2,13,3,28,5,24,4,12
2,8,0,27,1,6,3,12,5,23,4,23
2,18,1,1,0,1,4,20,3,2,5,9
0,23,2,4,1,16,4,5,3,4,5,12
